
(set-logic ALL) 

(declare-datatype MyList ((Nil) (Cons (head Real) (tail MyList)) )) 
(declare-fun l0 () MyList) 
(declare-fun l1 () MyList) 
(declare-fun l2 () MyList) 
(declare-fun l3 () MyList) 
(declare-fun i0 () Real) 
(declare-fun i1 () Real) 
(assert (and (is-Cons Nil) (is-Nil Nil) (= l1 Nil)) )
(assert (and (= l0 Nil) (= l0 Nil) (= l3 l0) (= l1 l3)) )
(assert (and (= l2 Nil) (is-Nil Nil) (is-Nil Nil)) )
(assert (= l1 Nil) )
(assert (and (= l2 Nil) (= l3 Nil) (= l0 Nil) (= l3 l2)) )
(assert (not (= l3 l1)) )
(assert (is-Nil Nil) )
(assert (or (is-Nil l1) (is-Cons Nil)) )
(check-sat)
